
ecut    46

# k-grid
kptopt  1
ngkpt   3*4
shiftk  3*0

# info on possible atoms
ntypat  2
znucl   6 7
pp_dirpath  "$ABI_PPDIR"
pseudos     "C.psp8, N.psp8" 

# spin polarization
nsppol 2
spinmagntarget 2

# def of supercell
acell 3*13.502563154
cellcharge -1
rprim
    1 0 0
    0 1 0
    0 0 1
natom 63
typat 56*1 2 6*1
xcart
    0.0 0.0 0.0
    1.6878171247 1.6878171247 1.6878171247
    3.37563424945 3.37563424945 0.0
    5.0634513741500005 5.0634513741500005 1.6878171247
    0.0 3.37563424945 3.37563424945
    1.6878171247 5.0634513741500005 5.0634513741500005
    3.37563424945 0.0 3.37563424945
    5.0634513741500005 1.6878171247 5.0634513741500005
    0.0 0.0 6.7512684989
    1.6878171247 1.6878171247 8.4390856236
    3.37563424945 3.37563424945 6.7512684989
    5.0634513741500005 5.0634513741500005 8.4390856236
    0.0 3.37563424945 10.12690274835
    1.6878171247 5.0634513741500005 11.81471987305
    3.37563424945 0.0 10.12690274835
    5.0634513741500005 1.6878171247 11.81471987305
    0.0 6.7512684989 0.0
    1.6878171247 8.4390856236 1.6878171247
    3.37563424945 10.12690274835 0.0
    5.0634513741500005 11.81471987305 1.6878171247
    0.0 10.12690274835 3.37563424945
    1.6878171247 11.81471987305 5.0634513741500005
    3.37563424945 6.7512684989 3.37563424945
    5.0634513741500005 8.4390856236 5.0634513741500005
    0.0 6.7512684989 6.7512684989
    1.6878171247 8.4390856236 8.4390856236
    3.37563424945 10.12690274835 6.7512684989
    5.0634513741500005 11.81471987305 8.4390856236
    0.0 10.12690274835 10.12690274835
    1.6878171247 11.81471987305 11.81471987305
    3.37563424945 6.7512684989 10.12690274835
    5.0634513741500005 8.4390856236 11.81471987305
    6.7512684989 0.0 0.0
    8.4390856236 1.6878171247 1.6878171247
    10.12690274835 3.37563424945 0.0
    11.81471987305 5.0634513741500005 1.6878171247
    6.7512684989 3.37563424945 3.37563424945
    8.4390856236 5.0634513741500005 5.0634513741500005
    10.12690274835 0.0 3.37563424945
    11.81471987305 1.6878171247 5.0634513741500005
    6.7512684989 0.0 6.7512684989
    8.4390856236 1.6878171247 8.4390856236
    10.12690274835 3.37563424945 6.7512684989
    11.81471987305 5.0634513741500005 8.4390856236
    6.7512684989 3.37563424945 10.12690274835
    8.4390856236 5.0634513741500005 11.81471987305
    10.12690274835 0.0 10.12690274835
    11.81471987305 1.6878171247 11.81471987305
    6.7512684989 6.7512684989 0.0
    8.4390856236 8.4390856236 1.6878171247
    10.12690274835 10.12690274835 0.0
    11.81471987305 11.81471987305 1.6878171247
    6.7512684989 10.12690274835 3.37563424945
    8.4390856236 11.81471987305 5.0634513741500005
    10.12690274835 6.7512684989 3.37563424945
    11.81471987305 8.4390856236 5.0634513741500005
    8.4390856236 8.4390856236 8.4390856236
    10.12690274835 10.12690274835 6.7512684989
    11.81471987305 11.81471987305 8.4390856236
    6.7512684989 10.12690274835 10.12690274835
    8.4390856236 11.81471987305 11.81471987305
    10.12690274835 6.7512684989 10.12690274835
    11.81471987305 8.4390856236 11.81471987305

# scf
nstep 100
toldff 5.0d-4
    
# settings, hints
prtden  1
chksymbreak     0
diemac  5.7
iomode  3
prtwf   1
istwfk  *1

# output directories
outdata_prefix  "./abinit-out/"
tmpdata_prefix  "./abinit-tmp/" 

