
ecut    46

# def of supercell
acell 3*6.7512815770
cellcharge -1
rprim
    1 0 0
    0 1 0
    0 0 1

# info on possible atoms
ntypat  2
znucl   6 7
pp_dirpath  "$ABI_PPDIR"
pseudos     "C.psp8, N.psp8"

# atoms and positions
natom 7
typat 2 6*1
xcart
    0.0 0.0 0.0
    3.37563424945 3.37563424945 0.0
    5.0634513741500005 5.0634513741500005 1.6878171247
    0.0 3.37563424945 3.37563424945
    1.6878171247 5.0634513741500005 5.0634513741500005
    3.37563424945 0.0 3.37563424945
    5.0634513741500005 1.6878171247 5.0634513741500005

#bands
iscf    -2
nband   32
tolwfr  1.0d-12
enunit  1
#ndivsm  10
kptopt  -11
ndivk   29 15 11 31 25 18 11 21 18 18 10
kptbounds
    0.0 0.0 0.0
    1.0 0.0 0.0
    1.0 0.0 0.5
    0.75 0.0 0.75
    0.0 0.0 0.0
    0.5 0.5 0.5
    1.0 0.25 0.25
    1.0 0.0 0.5
    0.5 0.5 0.5
    0.75 0.0 0.75
    1.0 0.25 0.25
    1.0 0.0 0.0


# settings, hints
getden_filepath "../scf-gs/abinit-out/_DEN.nc"
chksymbreak     0
nstep   30
chkprim 0
diemac  5.7
iomode  3
prtwf   1
istwfk  *1

# output directories
outdata_prefix  "./abinit-out/"
tmpdata_prefix  "./abinit-tmp/"

