# converged ecut and k grid
ecut    46
kptopt  1
ngkpt   3*10
shiftk  3*0

# def of primitive cell
acell   3*6.7512815770
rprim   1/2     1/2     0
        0       1/2     1/2
        1/2     0       1/2

# info on possible atoms
ntypat  1
znucl   6
pp_dirpath  "$ABI_PPDIR"
pseudos     "C.psp8"

# atoms and positions
natom   2
typat   1   1
xred    0       0       0
        1/4     1/4     1/4

# self-energy
optdriver   4
nband       30
ecutsigx    12
nkptgw      47
kptgw
     0.00000000E+00  0.00000000E+00  0.00000000E+00
     1.00000000E-01  0.00000000E+00  0.00000000E+00
     2.00000000E-01  0.00000000E+00  0.00000000E+00
     3.00000000E-01  0.00000000E+00  0.00000000E+00
     4.00000000E-01  0.00000000E+00  0.00000000E+00
     5.00000000E-01  0.00000000E+00  0.00000000E+00
     1.00000000E-01  1.00000000E-01  0.00000000E+00
     2.00000000E-01  1.00000000E-01  0.00000000E+00
     3.00000000E-01  1.00000000E-01  0.00000000E+00
     4.00000000E-01  1.00000000E-01  0.00000000E+00
     5.00000000E-01  1.00000000E-01  0.00000000E+00
    -4.00000000E-01  1.00000000E-01  0.00000000E+00
    -3.00000000E-01  1.00000000E-01  0.00000000E+00
    -2.00000000E-01  1.00000000E-01  0.00000000E+00
    -1.00000000E-01  1.00000000E-01  0.00000000E+00
     2.00000000E-01  2.00000000E-01  0.00000000E+00
     3.00000000E-01  2.00000000E-01  0.00000000E+00
     4.00000000E-01  2.00000000E-01  0.00000000E+00
     5.00000000E-01  2.00000000E-01  0.00000000E+00
    -4.00000000E-01  2.00000000E-01  0.00000000E+00
    -3.00000000E-01  2.00000000E-01  0.00000000E+00
    -2.00000000E-01  2.00000000E-01  0.00000000E+00
     3.00000000E-01  3.00000000E-01  0.00000000E+00
     4.00000000E-01  3.00000000E-01  0.00000000E+00
     5.00000000E-01  3.00000000E-01  0.00000000E+00
    -4.00000000E-01  3.00000000E-01  0.00000000E+00
    -3.00000000E-01  3.00000000E-01  0.00000000E+00
     4.00000000E-01  4.00000000E-01  0.00000000E+00
     5.00000000E-01  4.00000000E-01  0.00000000E+00
    -4.00000000E-01  4.00000000E-01  0.00000000E+00
     5.00000000E-01  5.00000000E-01  0.00000000E+00
     3.00000000E-01  2.00000000E-01  1.00000000E-01
     4.00000000E-01  2.00000000E-01  1.00000000E-01
     5.00000000E-01  2.00000000E-01  1.00000000E-01
    -4.00000000E-01  2.00000000E-01  1.00000000E-01
     4.00000000E-01  3.00000000E-01  1.00000000E-01
     5.00000000E-01  3.00000000E-01  1.00000000E-01
    -4.00000000E-01  3.00000000E-01  1.00000000E-01
    -3.00000000E-01  3.00000000E-01  1.00000000E-01
    -2.00000000E-01  3.00000000E-01  1.00000000E-01
     5.00000000E-01  4.00000000E-01  1.00000000E-01
    -4.00000000E-01  4.00000000E-01  1.00000000E-01
    -3.00000000E-01  4.00000000E-01  1.00000000E-01
    -4.00000000E-01  5.00000000E-01  1.00000000E-01
    -4.00000000E-01  4.00000000E-01  2.00000000E-01
    -3.00000000E-01  4.00000000E-01  2.00000000E-01
    -3.00000000E-01  5.00000000E-01  2.00000000E-01
bdgw
    1 8 1 8 1 8 1 8 1 8 1 8 1 8 1 8 1 8 1 8
    1 8 1 8 1 8 1 8 1 8 1 8 1 8 1 8 1 8 1 8
    1 8 1 8 1 8 1 8 1 8 1 8 1 8 1 8 1 8 1 8
    1 8 1 8 1 8 1 8 1 8 1 8 1 8 1 8 1 8 1 8
    1 8 1 8 1 8 1 8 1 8 1 8 1 8

# settings, hints
getscr_filepath "../scr/abinit-out/_SCR.nc"
getwfk_filepath "../nscf-bands/abinit-out/_WFK.nc"
chksymbreak     0
nstep   30
diemac  5.7
iomode  3
prtwf   1
istwfk  *1

# output directories
outdata_prefix  "./abinit-out/"
tmpdata_prefix  "./abinit-tmp/"