
ecut    46

# info on possible atoms
ntypat  2
znucl   6 7
pp_dirpath  "$ABI_PPDIR"
pseudos     "C.psp8, N.psp8" 

# def of supercell
acell 3*13.5025369978
cellcharge -1
rprim
    1 0 0
    0 1 0
    0 0 1
natom 63
typat 56*1 2 6*1
xcart
    0.0 0.0 0.0
    1.6878171247 1.6878171247 1.6878171247
    3.37563424945 3.37563424945 0.0
    5.0634513741500005 5.0634513741500005 1.6878171247
    0.0 3.37563424945 3.37563424945
    1.6878171247 5.0634513741500005 5.0634513741500005
    3.37563424945 0.0 3.37563424945
    5.0634513741500005 1.6878171247 5.0634513741500005
    0.0 0.0 6.7512684989
    1.6878171247 1.6878171247 8.4390856236
    3.37563424945 3.37563424945 6.7512684989
    5.0634513741500005 5.0634513741500005 8.4390856236
    0.0 3.37563424945 10.12690274835
    1.6878171247 5.0634513741500005 11.81471987305
    3.37563424945 0.0 10.12690274835
    5.0634513741500005 1.6878171247 11.81471987305
    0.0 6.7512684989 0.0
    1.6878171247 8.4390856236 1.6878171247
    3.37563424945 10.12690274835 0.0
    5.0634513741500005 11.81471987305 1.6878171247
    0.0 10.12690274835 3.37563424945
    1.6878171247 11.81471987305 5.0634513741500005
    3.37563424945 6.7512684989 3.37563424945
    5.0634513741500005 8.4390856236 5.0634513741500005
    0.0 6.7512684989 6.7512684989
    1.6878171247 8.4390856236 8.4390856236
    3.37563424945 10.12690274835 6.7512684989
    5.0634513741500005 11.81471987305 8.4390856236
    0.0 10.12690274835 10.12690274835
    1.6878171247 11.81471987305 11.81471987305
    3.37563424945 6.7512684989 10.12690274835
    5.0634513741500005 8.4390856236 11.81471987305
    6.7512684989 0.0 0.0
    8.4390856236 1.6878171247 1.6878171247
    10.12690274835 3.37563424945 0.0
    11.81471987305 5.0634513741500005 1.6878171247
    6.7512684989 3.37563424945 3.37563424945
    8.4390856236 5.0634513741500005 5.0634513741500005
    10.12690274835 0.0 3.37563424945
    11.81471987305 1.6878171247 5.0634513741500005
    6.7512684989 0.0 6.7512684989
    8.4390856236 1.6878171247 8.4390856236
    10.12690274835 3.37563424945 6.7512684989
    11.81471987305 5.0634513741500005 8.4390856236
    6.7512684989 3.37563424945 10.12690274835
    8.4390856236 5.0634513741500005 11.81471987305
    10.12690274835 0.0 10.12690274835
    11.81471987305 1.6878171247 11.81471987305
    6.7512684989 6.7512684989 0.0
    8.4390856236 8.4390856236 1.6878171247
    10.12690274835 10.12690274835 0.0
    11.81471987305 11.81471987305 1.6878171247
    6.7512684989 10.12690274835 3.37563424945
    8.4390856236 11.81471987305 5.0634513741500005
    10.12690274835 6.7512684989 3.37563424945
    11.81471987305 8.4390856236 5.0634513741500005
    8.4390856236 8.4390856236 8.4390856236
    10.12690274835 10.12690274835 6.7512684989
    11.81471987305 11.81471987305 8.4390856236
    6.7512684989 10.12690274835 10.12690274835
    8.4390856236 11.81471987305 11.81471987305
    10.12690274835 6.7512684989 10.12690274835
    11.81471987305 8.4390856236 11.81471987305

# bands
iscf    -2
nband   140
tolwfr  1.0d-12
enunit  1
ndivsm 10
kptopt -7
kptbounds
    +0.000000000  +0.000000000  +0.000000000  # $\Gamma$
    +0.500000000  -0.500000000  +0.500000000  # Z
    +0.500000000  +0.500000000  +0.500000000  # Q
    +0.000000000  +0.000000000  +0.000000000  # $\Gamma$
    +0.500000000  -0.500000000  +0.000000000  # F
    +0.500000000  -0.500000000  -0.500000000  # $Q_1$
    +0.500000000  +0.000000000  +0.000000000  # L
    +0.500000000  -0.500000000  +0.500000000  # Z

# settings, hints
getden_filepath "../scf-gs/abinit-out/_DEN.nc"
chksymbreak     0
nstep   100
chkprim 0
diemac  5.7
iomode  3
prtwf   1
istwfk  *1

# output directories
outdata_prefix  "./abinit-out/"
tmpdata_prefix  "./abinit-tmp/" 
